lbl,CUST NO.,READY TIME,XCOORD.,YCOORD.,DEMAND,DUE DATE,SERVICE TIME
18,221,134,5,162,26,144,10
18,364,145,12,131,28,155,10
18,326,210,28,127,24,220,10
18,15,319,24,131,31,329,10
18,25,413,1,149,35,423,10
18,257,536,16,141,20,546,10
18,49,660,5,130,15,670,10
18,354,682,13,139,34,692,10
